\ Model cloudExample
\ LP format - for model browsing. Use MPS format to capture full model detail.
Maximize
  2400 xm + 3200 xs
Subject To
 ramConst: 100 xm + 40 xs <= 10000
 stoConst: 200 xm + 400 xs <= 60000
Bounds
 xs <= 140
End
